<number of tasks>
20

<cycle time>
1000

<order strength>
0,174


<task times>
1 586
2 445
3 917
4 296
5 484
6 583
7 557
8 292
9 684
10 733
11 428
12 580
13 482
14 560
15 472
16 437
17 619
18 529
19 448
20 727

<precedence relations>
1,9
3,7
4,10
6,8
7,12
7,13
9,11
10,14
12,17
13,15
14,16
16,18
16,20
17,19

<end>
